890563
33,45,27,10,22,97,53,64,51,23,42,21,83,91,38,13,85,80,44,14,66,60,57,81,15,82,87,49,35,98,37,75,86,34,96,41,26,1,2,63,4,84,88,7,52,54,43,90,71,67,62,12,79,36,47,0,69,31,73,59,30,61,92,48,5,74,68,40,17,55,9,76,29,95,20,19,8,32,56,46,94,65,3,6,72,24,77,50,78,28,39,93,25,16,11,18,58,89,70
